var_elim/models/pyomo_dae/optimal_control_example/optimal_control_pyomo_dae/ipopt.opt
print_timing_statistics yes